NAME : B-n39-k5
COMMENT : (Augerat et al, No of trucks: 5, Optimal value: 549)
TYPE : CVRP
DIMENSION : 39
EDGE_WEIGHT_TYPE : EUC_2D 
CAPACITY : 100
NODE_COORD_SECTION 
 1 37 21
 2 77 57
 3 97 79
 4 39 33
 5 45 47
 6 85 23
 7 7 1
 8 16 6
 9 21 13
 10 21 7
 11 12 6
 12 92 24
 13 92 32
 14 10 8
 15 19 15
 16 86 24
 17 106 84
 18 48 48
 19 8 2
 20 14 2
 21 14 2
 22 98 82
 23 106 80
 24 98 86
 25 98 82
 26 80 62
 27 82 62
 28 52 52
 29 42 42
 30 25 11
 31 104 86
 32 44 38
 33 78 64
 34 98 80
 35 16 4
 36 46 48
 37 44 42
 38 100 82
 39 52 54
DEMAND_SECTION 
1 0 
2 14 
3 16 
4 18 
5 20 
6 1 
7 12 
8 13 
9 18 
10 9 
11 15 
12 8 
13 10 
14 7 
15 18 
16 14 
17 1 
18 15 
19 7 
20 25 
21 2 
22 3 
23 4 
24 16 
25 15 
26 23 
27 11 
28 21 
29 10 
30 12 
31 9 
32 7 
33 8 
34 4 
35 23 
36 8 
37 6 
38 2 
39 15 
DEPOT_SECTION 
 1  
 -1  
EOF 
